experiments/sat_smt/run/sat-r+/results/lucy.res
solved=true
solvingTime=4.3937168121337890625
nActions=8