experiments/sat_smt/run/sat-r+/results/lucy.out
Timesteps: 1
s UNSATISFIABLE
real 0.17
user 0.02
sys 0.00
Timesteps: 2
s UNSATISFIABLE
real 0.12
user 0.04
sys 0.00
Timesteps: 3
s UNSATISFIABLE
real 0.26
user 0.09
sys 0.01
Timesteps: 4
s UNSATISFIABLE
real 0.28
user 0.14
sys 0.01
Timesteps: 5
s UNSATISFIABLE
real 0.59
user 0.29
sys 0.01
Timesteps: 6
s UNSATISFIABLE
real 0.57
user 0.40
sys 0.02
Timesteps: 7
s UNSATISFIABLE
real 1.01
user 0.81
sys 0.01
Timesteps: 8
s SATISFIABLE
real 1.35
user 0.93
sys 0.03
